c Line Graph - Bad case for Dinics
c 1000 vertices
p max 1000 1997
n 1 s
n 1000 t
a 1 1000 1
a 1 2 1000
a 2 1000 1
a 2 3 1000
a 3 1000 1
a 3 4 1000
a 4 1000 1
a 4 5 1000
a 5 1000 1
a 5 6 1000
a 6 1000 1
a 6 7 1000
a 7 1000 1
a 7 8 1000
a 8 1000 1
a 8 9 1000
a 9 1000 1
a 9 10 1000
a 10 1000 1
a 10 11 1000
a 11 1000 1
a 11 12 1000
a 12 1000 1
a 12 13 1000
a 13 1000 1
a 13 14 1000
a 14 1000 1
a 14 15 1000
a 15 1000 1
a 15 16 1000
a 16 1000 1
a 16 17 1000
a 17 1000 1
a 17 18 1000
a 18 1000 1
a 18 19 1000
a 19 1000 1
a 19 20 1000
a 20 1000 1
a 20 21 1000
a 21 1000 1
a 21 22 1000
a 22 1000 1
a 22 23 1000
a 23 1000 1
a 23 24 1000
a 24 1000 1
a 24 25 1000
a 25 1000 1
a 25 26 1000
a 26 1000 1
a 26 27 1000
a 27 1000 1
a 27 28 1000
a 28 1000 1
a 28 29 1000
a 29 1000 1
a 29 30 1000
a 30 1000 1
a 30 31 1000
a 31 1000 1
a 31 32 1000
a 32 1000 1
a 32 33 1000
a 33 1000 1
a 33 34 1000
a 34 1000 1
a 34 35 1000
a 35 1000 1
a 35 36 1000
a 36 1000 1
a 36 37 1000
a 37 1000 1
a 37 38 1000
a 38 1000 1
a 38 39 1000
a 39 1000 1
a 39 40 1000
a 40 1000 1
a 40 41 1000
a 41 1000 1
a 41 42 1000
a 42 1000 1
a 42 43 1000
a 43 1000 1
a 43 44 1000
a 44 1000 1
a 44 45 1000
a 45 1000 1
a 45 46 1000
a 46 1000 1
a 46 47 1000
a 47 1000 1
a 47 48 1000
a 48 1000 1
a 48 49 1000
a 49 1000 1
a 49 50 1000
a 50 1000 1
a 50 51 1000
a 51 1000 1
a 51 52 1000
a 52 1000 1
a 52 53 1000
a 53 1000 1
a 53 54 1000
a 54 1000 1
a 54 55 1000
a 55 1000 1
a 55 56 1000
a 56 1000 1
a 56 57 1000
a 57 1000 1
a 57 58 1000
a 58 1000 1
a 58 59 1000
a 59 1000 1
a 59 60 1000
a 60 1000 1
a 60 61 1000
a 61 1000 1
a 61 62 1000
a 62 1000 1
a 62 63 1000
a 63 1000 1
a 63 64 1000
a 64 1000 1
a 64 65 1000
a 65 1000 1
a 65 66 1000
a 66 1000 1
a 66 67 1000
a 67 1000 1
a 67 68 1000
a 68 1000 1
a 68 69 1000
a 69 1000 1
a 69 70 1000
a 70 1000 1
a 70 71 1000
a 71 1000 1
a 71 72 1000
a 72 1000 1
a 72 73 1000
a 73 1000 1
a 73 74 1000
a 74 1000 1
a 74 75 1000
a 75 1000 1
a 75 76 1000
a 76 1000 1
a 76 77 1000
a 77 1000 1
a 77 78 1000
a 78 1000 1
a 78 79 1000
a 79 1000 1
a 79 80 1000
a 80 1000 1
a 80 81 1000
a 81 1000 1
a 81 82 1000
a 82 1000 1
a 82 83 1000
a 83 1000 1
a 83 84 1000
a 84 1000 1
a 84 85 1000
a 85 1000 1
a 85 86 1000
a 86 1000 1
a 86 87 1000
a 87 1000 1
a 87 88 1000
a 88 1000 1
a 88 89 1000
a 89 1000 1
a 89 90 1000
a 90 1000 1
a 90 91 1000
a 91 1000 1
a 91 92 1000
a 92 1000 1
a 92 93 1000
a 93 1000 1
a 93 94 1000
a 94 1000 1
a 94 95 1000
a 95 1000 1
a 95 96 1000
a 96 1000 1
a 96 97 1000
a 97 1000 1
a 97 98 1000
a 98 1000 1
a 98 99 1000
a 99 1000 1
a 99 100 1000
a 100 1000 1
a 100 101 1000
a 101 1000 1
a 101 102 1000
a 102 1000 1
a 102 103 1000
a 103 1000 1
a 103 104 1000
a 104 1000 1
a 104 105 1000
a 105 1000 1
a 105 106 1000
a 106 1000 1
a 106 107 1000
a 107 1000 1
a 107 108 1000
a 108 1000 1
a 108 109 1000
a 109 1000 1
a 109 110 1000
a 110 1000 1
a 110 111 1000
a 111 1000 1
a 111 112 1000
a 112 1000 1
a 112 113 1000
a 113 1000 1
a 113 114 1000
a 114 1000 1
a 114 115 1000
a 115 1000 1
a 115 116 1000
a 116 1000 1
a 116 117 1000
a 117 1000 1
a 117 118 1000
a 118 1000 1
a 118 119 1000
a 119 1000 1
a 119 120 1000
a 120 1000 1
a 120 121 1000
a 121 1000 1
a 121 122 1000
a 122 1000 1
a 122 123 1000
a 123 1000 1
a 123 124 1000
a 124 1000 1
a 124 125 1000
a 125 1000 1
a 125 126 1000
a 126 1000 1
a 126 127 1000
a 127 1000 1
a 127 128 1000
a 128 1000 1
a 128 129 1000
a 129 1000 1
a 129 130 1000
a 130 1000 1
a 130 131 1000
a 131 1000 1
a 131 132 1000
a 132 1000 1
a 132 133 1000
a 133 1000 1
a 133 134 1000
a 134 1000 1
a 134 135 1000
a 135 1000 1
a 135 136 1000
a 136 1000 1
a 136 137 1000
a 137 1000 1
a 137 138 1000
a 138 1000 1
a 138 139 1000
a 139 1000 1
a 139 140 1000
a 140 1000 1
a 140 141 1000
a 141 1000 1
a 141 142 1000
a 142 1000 1
a 142 143 1000
a 143 1000 1
a 143 144 1000
a 144 1000 1
a 144 145 1000
a 145 1000 1
a 145 146 1000
a 146 1000 1
a 146 147 1000
a 147 1000 1
a 147 148 1000
a 148 1000 1
a 148 149 1000
a 149 1000 1
a 149 150 1000
a 150 1000 1
a 150 151 1000
a 151 1000 1
a 151 152 1000
a 152 1000 1
a 152 153 1000
a 153 1000 1
a 153 154 1000
a 154 1000 1
a 154 155 1000
a 155 1000 1
a 155 156 1000
a 156 1000 1
a 156 157 1000
a 157 1000 1
a 157 158 1000
a 158 1000 1
a 158 159 1000
a 159 1000 1
a 159 160 1000
a 160 1000 1
a 160 161 1000
a 161 1000 1
a 161 162 1000
a 162 1000 1
a 162 163 1000
a 163 1000 1
a 163 164 1000
a 164 1000 1
a 164 165 1000
a 165 1000 1
a 165 166 1000
a 166 1000 1
a 166 167 1000
a 167 1000 1
a 167 168 1000
a 168 1000 1
a 168 169 1000
a 169 1000 1
a 169 170 1000
a 170 1000 1
a 170 171 1000
a 171 1000 1
a 171 172 1000
a 172 1000 1
a 172 173 1000
a 173 1000 1
a 173 174 1000
a 174 1000 1
a 174 175 1000
a 175 1000 1
a 175 176 1000
a 176 1000 1
a 176 177 1000
a 177 1000 1
a 177 178 1000
a 178 1000 1
a 178 179 1000
a 179 1000 1
a 179 180 1000
a 180 1000 1
a 180 181 1000
a 181 1000 1
a 181 182 1000
a 182 1000 1
a 182 183 1000
a 183 1000 1
a 183 184 1000
a 184 1000 1
a 184 185 1000
a 185 1000 1
a 185 186 1000
a 186 1000 1
a 186 187 1000
a 187 1000 1
a 187 188 1000
a 188 1000 1
a 188 189 1000
a 189 1000 1
a 189 190 1000
a 190 1000 1
a 190 191 1000
a 191 1000 1
a 191 192 1000
a 192 1000 1
a 192 193 1000
a 193 1000 1
a 193 194 1000
a 194 1000 1
a 194 195 1000
a 195 1000 1
a 195 196 1000
a 196 1000 1
a 196 197 1000
a 197 1000 1
a 197 198 1000
a 198 1000 1
a 198 199 1000
a 199 1000 1
a 199 200 1000
a 200 1000 1
a 200 201 1000
a 201 1000 1
a 201 202 1000
a 202 1000 1
a 202 203 1000
a 203 1000 1
a 203 204 1000
a 204 1000 1
a 204 205 1000
a 205 1000 1
a 205 206 1000
a 206 1000 1
a 206 207 1000
a 207 1000 1
a 207 208 1000
a 208 1000 1
a 208 209 1000
a 209 1000 1
a 209 210 1000
a 210 1000 1
a 210 211 1000
a 211 1000 1
a 211 212 1000
a 212 1000 1
a 212 213 1000
a 213 1000 1
a 213 214 1000
a 214 1000 1
a 214 215 1000
a 215 1000 1
a 215 216 1000
a 216 1000 1
a 216 217 1000
a 217 1000 1
a 217 218 1000
a 218 1000 1
a 218 219 1000
a 219 1000 1
a 219 220 1000
a 220 1000 1
a 220 221 1000
a 221 1000 1
a 221 222 1000
a 222 1000 1
a 222 223 1000
a 223 1000 1
a 223 224 1000
a 224 1000 1
a 224 225 1000
a 225 1000 1
a 225 226 1000
a 226 1000 1
a 226 227 1000
a 227 1000 1
a 227 228 1000
a 228 1000 1
a 228 229 1000
a 229 1000 1
a 229 230 1000
a 230 1000 1
a 230 231 1000
a 231 1000 1
a 231 232 1000
a 232 1000 1
a 232 233 1000
a 233 1000 1
a 233 234 1000
a 234 1000 1
a 234 235 1000
a 235 1000 1
a 235 236 1000
a 236 1000 1
a 236 237 1000
a 237 1000 1
a 237 238 1000
a 238 1000 1
a 238 239 1000
a 239 1000 1
a 239 240 1000
a 240 1000 1
a 240 241 1000
a 241 1000 1
a 241 242 1000
a 242 1000 1
a 242 243 1000
a 243 1000 1
a 243 244 1000
a 244 1000 1
a 244 245 1000
a 245 1000 1
a 245 246 1000
a 246 1000 1
a 246 247 1000
a 247 1000 1
a 247 248 1000
a 248 1000 1
a 248 249 1000
a 249 1000 1
a 249 250 1000
a 250 1000 1
a 250 251 1000
a 251 1000 1
a 251 252 1000
a 252 1000 1
a 252 253 1000
a 253 1000 1
a 253 254 1000
a 254 1000 1
a 254 255 1000
a 255 1000 1
a 255 256 1000
a 256 1000 1
a 256 257 1000
a 257 1000 1
a 257 258 1000
a 258 1000 1
a 258 259 1000
a 259 1000 1
a 259 260 1000
a 260 1000 1
a 260 261 1000
a 261 1000 1
a 261 262 1000
a 262 1000 1
a 262 263 1000
a 263 1000 1
a 263 264 1000
a 264 1000 1
a 264 265 1000
a 265 1000 1
a 265 266 1000
a 266 1000 1
a 266 267 1000
a 267 1000 1
a 267 268 1000
a 268 1000 1
a 268 269 1000
a 269 1000 1
a 269 270 1000
a 270 1000 1
a 270 271 1000
a 271 1000 1
a 271 272 1000
a 272 1000 1
a 272 273 1000
a 273 1000 1
a 273 274 1000
a 274 1000 1
a 274 275 1000
a 275 1000 1
a 275 276 1000
a 276 1000 1
a 276 277 1000
a 277 1000 1
a 277 278 1000
a 278 1000 1
a 278 279 1000
a 279 1000 1
a 279 280 1000
a 280 1000 1
a 280 281 1000
a 281 1000 1
a 281 282 1000
a 282 1000 1
a 282 283 1000
a 283 1000 1
a 283 284 1000
a 284 1000 1
a 284 285 1000
a 285 1000 1
a 285 286 1000
a 286 1000 1
a 286 287 1000
a 287 1000 1
a 287 288 1000
a 288 1000 1
a 288 289 1000
a 289 1000 1
a 289 290 1000
a 290 1000 1
a 290 291 1000
a 291 1000 1
a 291 292 1000
a 292 1000 1
a 292 293 1000
a 293 1000 1
a 293 294 1000
a 294 1000 1
a 294 295 1000
a 295 1000 1
a 295 296 1000
a 296 1000 1
a 296 297 1000
a 297 1000 1
a 297 298 1000
a 298 1000 1
a 298 299 1000
a 299 1000 1
a 299 300 1000
a 300 1000 1
a 300 301 1000
a 301 1000 1
a 301 302 1000
a 302 1000 1
a 302 303 1000
a 303 1000 1
a 303 304 1000
a 304 1000 1
a 304 305 1000
a 305 1000 1
a 305 306 1000
a 306 1000 1
a 306 307 1000
a 307 1000 1
a 307 308 1000
a 308 1000 1
a 308 309 1000
a 309 1000 1
a 309 310 1000
a 310 1000 1
a 310 311 1000
a 311 1000 1
a 311 312 1000
a 312 1000 1
a 312 313 1000
a 313 1000 1
a 313 314 1000
a 314 1000 1
a 314 315 1000
a 315 1000 1
a 315 316 1000
a 316 1000 1
a 316 317 1000
a 317 1000 1
a 317 318 1000
a 318 1000 1
a 318 319 1000
a 319 1000 1
a 319 320 1000
a 320 1000 1
a 320 321 1000
a 321 1000 1
a 321 322 1000
a 322 1000 1
a 322 323 1000
a 323 1000 1
a 323 324 1000
a 324 1000 1
a 324 325 1000
a 325 1000 1
a 325 326 1000
a 326 1000 1
a 326 327 1000
a 327 1000 1
a 327 328 1000
a 328 1000 1
a 328 329 1000
a 329 1000 1
a 329 330 1000
a 330 1000 1
a 330 331 1000
a 331 1000 1
a 331 332 1000
a 332 1000 1
a 332 333 1000
a 333 1000 1
a 333 334 1000
a 334 1000 1
a 334 335 1000
a 335 1000 1
a 335 336 1000
a 336 1000 1
a 336 337 1000
a 337 1000 1
a 337 338 1000
a 338 1000 1
a 338 339 1000
a 339 1000 1
a 339 340 1000
a 340 1000 1
a 340 341 1000
a 341 1000 1
a 341 342 1000
a 342 1000 1
a 342 343 1000
a 343 1000 1
a 343 344 1000
a 344 1000 1
a 344 345 1000
a 345 1000 1
a 345 346 1000
a 346 1000 1
a 346 347 1000
a 347 1000 1
a 347 348 1000
a 348 1000 1
a 348 349 1000
a 349 1000 1
a 349 350 1000
a 350 1000 1
a 350 351 1000
a 351 1000 1
a 351 352 1000
a 352 1000 1
a 352 353 1000
a 353 1000 1
a 353 354 1000
a 354 1000 1
a 354 355 1000
a 355 1000 1
a 355 356 1000
a 356 1000 1
a 356 357 1000
a 357 1000 1
a 357 358 1000
a 358 1000 1
a 358 359 1000
a 359 1000 1
a 359 360 1000
a 360 1000 1
a 360 361 1000
a 361 1000 1
a 361 362 1000
a 362 1000 1
a 362 363 1000
a 363 1000 1
a 363 364 1000
a 364 1000 1
a 364 365 1000
a 365 1000 1
a 365 366 1000
a 366 1000 1
a 366 367 1000
a 367 1000 1
a 367 368 1000
a 368 1000 1
a 368 369 1000
a 369 1000 1
a 369 370 1000
a 370 1000 1
a 370 371 1000
a 371 1000 1
a 371 372 1000
a 372 1000 1
a 372 373 1000
a 373 1000 1
a 373 374 1000
a 374 1000 1
a 374 375 1000
a 375 1000 1
a 375 376 1000
a 376 1000 1
a 376 377 1000
a 377 1000 1
a 377 378 1000
a 378 1000 1
a 378 379 1000
a 379 1000 1
a 379 380 1000
a 380 1000 1
a 380 381 1000
a 381 1000 1
a 381 382 1000
a 382 1000 1
a 382 383 1000
a 383 1000 1
a 383 384 1000
a 384 1000 1
a 384 385 1000
a 385 1000 1
a 385 386 1000
a 386 1000 1
a 386 387 1000
a 387 1000 1
a 387 388 1000
a 388 1000 1
a 388 389 1000
a 389 1000 1
a 389 390 1000
a 390 1000 1
a 390 391 1000
a 391 1000 1
a 391 392 1000
a 392 1000 1
a 392 393 1000
a 393 1000 1
a 393 394 1000
a 394 1000 1
a 394 395 1000
a 395 1000 1
a 395 396 1000
a 396 1000 1
a 396 397 1000
a 397 1000 1
a 397 398 1000
a 398 1000 1
a 398 399 1000
a 399 1000 1
a 399 400 1000
a 400 1000 1
a 400 401 1000
a 401 1000 1
a 401 402 1000
a 402 1000 1
a 402 403 1000
a 403 1000 1
a 403 404 1000
a 404 1000 1
a 404 405 1000
a 405 1000 1
a 405 406 1000
a 406 1000 1
a 406 407 1000
a 407 1000 1
a 407 408 1000
a 408 1000 1
a 408 409 1000
a 409 1000 1
a 409 410 1000
a 410 1000 1
a 410 411 1000
a 411 1000 1
a 411 412 1000
a 412 1000 1
a 412 413 1000
a 413 1000 1
a 413 414 1000
a 414 1000 1
a 414 415 1000
a 415 1000 1
a 415 416 1000
a 416 1000 1
a 416 417 1000
a 417 1000 1
a 417 418 1000
a 418 1000 1
a 418 419 1000
a 419 1000 1
a 419 420 1000
a 420 1000 1
a 420 421 1000
a 421 1000 1
a 421 422 1000
a 422 1000 1
a 422 423 1000
a 423 1000 1
a 423 424 1000
a 424 1000 1
a 424 425 1000
a 425 1000 1
a 425 426 1000
a 426 1000 1
a 426 427 1000
a 427 1000 1
a 427 428 1000
a 428 1000 1
a 428 429 1000
a 429 1000 1
a 429 430 1000
a 430 1000 1
a 430 431 1000
a 431 1000 1
a 431 432 1000
a 432 1000 1
a 432 433 1000
a 433 1000 1
a 433 434 1000
a 434 1000 1
a 434 435 1000
a 435 1000 1
a 435 436 1000
a 436 1000 1
a 436 437 1000
a 437 1000 1
a 437 438 1000
a 438 1000 1
a 438 439 1000
a 439 1000 1
a 439 440 1000
a 440 1000 1
a 440 441 1000
a 441 1000 1
a 441 442 1000
a 442 1000 1
a 442 443 1000
a 443 1000 1
a 443 444 1000
a 444 1000 1
a 444 445 1000
a 445 1000 1
a 445 446 1000
a 446 1000 1
a 446 447 1000
a 447 1000 1
a 447 448 1000
a 448 1000 1
a 448 449 1000
a 449 1000 1
a 449 450 1000
a 450 1000 1
a 450 451 1000
a 451 1000 1
a 451 452 1000
a 452 1000 1
a 452 453 1000
a 453 1000 1
a 453 454 1000
a 454 1000 1
a 454 455 1000
a 455 1000 1
a 455 456 1000
a 456 1000 1
a 456 457 1000
a 457 1000 1
a 457 458 1000
a 458 1000 1
a 458 459 1000
a 459 1000 1
a 459 460 1000
a 460 1000 1
a 460 461 1000
a 461 1000 1
a 461 462 1000
a 462 1000 1
a 462 463 1000
a 463 1000 1
a 463 464 1000
a 464 1000 1
a 464 465 1000
a 465 1000 1
a 465 466 1000
a 466 1000 1
a 466 467 1000
a 467 1000 1
a 467 468 1000
a 468 1000 1
a 468 469 1000
a 469 1000 1
a 469 470 1000
a 470 1000 1
a 470 471 1000
a 471 1000 1
a 471 472 1000
a 472 1000 1
a 472 473 1000
a 473 1000 1
a 473 474 1000
a 474 1000 1
a 474 475 1000
a 475 1000 1
a 475 476 1000
a 476 1000 1
a 476 477 1000
a 477 1000 1
a 477 478 1000
a 478 1000 1
a 478 479 1000
a 479 1000 1
a 479 480 1000
a 480 1000 1
a 480 481 1000
a 481 1000 1
a 481 482 1000
a 482 1000 1
a 482 483 1000
a 483 1000 1
a 483 484 1000
a 484 1000 1
a 484 485 1000
a 485 1000 1
a 485 486 1000
a 486 1000 1
a 486 487 1000
a 487 1000 1
a 487 488 1000
a 488 1000 1
a 488 489 1000
a 489 1000 1
a 489 490 1000
a 490 1000 1
a 490 491 1000
a 491 1000 1
a 491 492 1000
a 492 1000 1
a 492 493 1000
a 493 1000 1
a 493 494 1000
a 494 1000 1
a 494 495 1000
a 495 1000 1
a 495 496 1000
a 496 1000 1
a 496 497 1000
a 497 1000 1
a 497 498 1000
a 498 1000 1
a 498 499 1000
a 499 1000 1
a 499 500 1000
a 500 1000 1
a 500 501 1000
a 501 1000 1
a 501 502 1000
a 502 1000 1
a 502 503 1000
a 503 1000 1
a 503 504 1000
a 504 1000 1
a 504 505 1000
a 505 1000 1
a 505 506 1000
a 506 1000 1
a 506 507 1000
a 507 1000 1
a 507 508 1000
a 508 1000 1
a 508 509 1000
a 509 1000 1
a 509 510 1000
a 510 1000 1
a 510 511 1000
a 511 1000 1
a 511 512 1000
a 512 1000 1
a 512 513 1000
a 513 1000 1
a 513 514 1000
a 514 1000 1
a 514 515 1000
a 515 1000 1
a 515 516 1000
a 516 1000 1
a 516 517 1000
a 517 1000 1
a 517 518 1000
a 518 1000 1
a 518 519 1000
a 519 1000 1
a 519 520 1000
a 520 1000 1
a 520 521 1000
a 521 1000 1
a 521 522 1000
a 522 1000 1
a 522 523 1000
a 523 1000 1
a 523 524 1000
a 524 1000 1
a 524 525 1000
a 525 1000 1
a 525 526 1000
a 526 1000 1
a 526 527 1000
a 527 1000 1
a 527 528 1000
a 528 1000 1
a 528 529 1000
a 529 1000 1
a 529 530 1000
a 530 1000 1
a 530 531 1000
a 531 1000 1
a 531 532 1000
a 532 1000 1
a 532 533 1000
a 533 1000 1
a 533 534 1000
a 534 1000 1
a 534 535 1000
a 535 1000 1
a 535 536 1000
a 536 1000 1
a 536 537 1000
a 537 1000 1
a 537 538 1000
a 538 1000 1
a 538 539 1000
a 539 1000 1
a 539 540 1000
a 540 1000 1
a 540 541 1000
a 541 1000 1
a 541 542 1000
a 542 1000 1
a 542 543 1000
a 543 1000 1
a 543 544 1000
a 544 1000 1
a 544 545 1000
a 545 1000 1
a 545 546 1000
a 546 1000 1
a 546 547 1000
a 547 1000 1
a 547 548 1000
a 548 1000 1
a 548 549 1000
a 549 1000 1
a 549 550 1000
a 550 1000 1
a 550 551 1000
a 551 1000 1
a 551 552 1000
a 552 1000 1
a 552 553 1000
a 553 1000 1
a 553 554 1000
a 554 1000 1
a 554 555 1000
a 555 1000 1
a 555 556 1000
a 556 1000 1
a 556 557 1000
a 557 1000 1
a 557 558 1000
a 558 1000 1
a 558 559 1000
a 559 1000 1
a 559 560 1000
a 560 1000 1
a 560 561 1000
a 561 1000 1
a 561 562 1000
a 562 1000 1
a 562 563 1000
a 563 1000 1
a 563 564 1000
a 564 1000 1
a 564 565 1000
a 565 1000 1
a 565 566 1000
a 566 1000 1
a 566 567 1000
a 567 1000 1
a 567 568 1000
a 568 1000 1
a 568 569 1000
a 569 1000 1
a 569 570 1000
a 570 1000 1
a 570 571 1000
a 571 1000 1
a 571 572 1000
a 572 1000 1
a 572 573 1000
a 573 1000 1
a 573 574 1000
a 574 1000 1
a 574 575 1000
a 575 1000 1
a 575 576 1000
a 576 1000 1
a 576 577 1000
a 577 1000 1
a 577 578 1000
a 578 1000 1
a 578 579 1000
a 579 1000 1
a 579 580 1000
a 580 1000 1
a 580 581 1000
a 581 1000 1
a 581 582 1000
a 582 1000 1
a 582 583 1000
a 583 1000 1
a 583 584 1000
a 584 1000 1
a 584 585 1000
a 585 1000 1
a 585 586 1000
a 586 1000 1
a 586 587 1000
a 587 1000 1
a 587 588 1000
a 588 1000 1
a 588 589 1000
a 589 1000 1
a 589 590 1000
a 590 1000 1
a 590 591 1000
a 591 1000 1
a 591 592 1000
a 592 1000 1
a 592 593 1000
a 593 1000 1
a 593 594 1000
a 594 1000 1
a 594 595 1000
a 595 1000 1
a 595 596 1000
a 596 1000 1
a 596 597 1000
a 597 1000 1
a 597 598 1000
a 598 1000 1
a 598 599 1000
a 599 1000 1
a 599 600 1000
a 600 1000 1
a 600 601 1000
a 601 1000 1
a 601 602 1000
a 602 1000 1
a 602 603 1000
a 603 1000 1
a 603 604 1000
a 604 1000 1
a 604 605 1000
a 605 1000 1
a 605 606 1000
a 606 1000 1
a 606 607 1000
a 607 1000 1
a 607 608 1000
a 608 1000 1
a 608 609 1000
a 609 1000 1
a 609 610 1000
a 610 1000 1
a 610 611 1000
a 611 1000 1
a 611 612 1000
a 612 1000 1
a 612 613 1000
a 613 1000 1
a 613 614 1000
a 614 1000 1
a 614 615 1000
a 615 1000 1
a 615 616 1000
a 616 1000 1
a 616 617 1000
a 617 1000 1
a 617 618 1000
a 618 1000 1
a 618 619 1000
a 619 1000 1
a 619 620 1000
a 620 1000 1
a 620 621 1000
a 621 1000 1
a 621 622 1000
a 622 1000 1
a 622 623 1000
a 623 1000 1
a 623 624 1000
a 624 1000 1
a 624 625 1000
a 625 1000 1
a 625 626 1000
a 626 1000 1
a 626 627 1000
a 627 1000 1
a 627 628 1000
a 628 1000 1
a 628 629 1000
a 629 1000 1
a 629 630 1000
a 630 1000 1
a 630 631 1000
a 631 1000 1
a 631 632 1000
a 632 1000 1
a 632 633 1000
a 633 1000 1
a 633 634 1000
a 634 1000 1
a 634 635 1000
a 635 1000 1
a 635 636 1000
a 636 1000 1
a 636 637 1000
a 637 1000 1
a 637 638 1000
a 638 1000 1
a 638 639 1000
a 639 1000 1
a 639 640 1000
a 640 1000 1
a 640 641 1000
a 641 1000 1
a 641 642 1000
a 642 1000 1
a 642 643 1000
a 643 1000 1
a 643 644 1000
a 644 1000 1
a 644 645 1000
a 645 1000 1
a 645 646 1000
a 646 1000 1
a 646 647 1000
a 647 1000 1
a 647 648 1000
a 648 1000 1
a 648 649 1000
a 649 1000 1
a 649 650 1000
a 650 1000 1
a 650 651 1000
a 651 1000 1
a 651 652 1000
a 652 1000 1
a 652 653 1000
a 653 1000 1
a 653 654 1000
a 654 1000 1
a 654 655 1000
a 655 1000 1
a 655 656 1000
a 656 1000 1
a 656 657 1000
a 657 1000 1
a 657 658 1000
a 658 1000 1
a 658 659 1000
a 659 1000 1
a 659 660 1000
a 660 1000 1
a 660 661 1000
a 661 1000 1
a 661 662 1000
a 662 1000 1
a 662 663 1000
a 663 1000 1
a 663 664 1000
a 664 1000 1
a 664 665 1000
a 665 1000 1
a 665 666 1000
a 666 1000 1
a 666 667 1000
a 667 1000 1
a 667 668 1000
a 668 1000 1
a 668 669 1000
a 669 1000 1
a 669 670 1000
a 670 1000 1
a 670 671 1000
a 671 1000 1
a 671 672 1000
a 672 1000 1
a 672 673 1000
a 673 1000 1
a 673 674 1000
a 674 1000 1
a 674 675 1000
a 675 1000 1
a 675 676 1000
a 676 1000 1
a 676 677 1000
a 677 1000 1
a 677 678 1000
a 678 1000 1
a 678 679 1000
a 679 1000 1
a 679 680 1000
a 680 1000 1
a 680 681 1000
a 681 1000 1
a 681 682 1000
a 682 1000 1
a 682 683 1000
a 683 1000 1
a 683 684 1000
a 684 1000 1
a 684 685 1000
a 685 1000 1
a 685 686 1000
a 686 1000 1
a 686 687 1000
a 687 1000 1
a 687 688 1000
a 688 1000 1
a 688 689 1000
a 689 1000 1
a 689 690 1000
a 690 1000 1
a 690 691 1000
a 691 1000 1
a 691 692 1000
a 692 1000 1
a 692 693 1000
a 693 1000 1
a 693 694 1000
a 694 1000 1
a 694 695 1000
a 695 1000 1
a 695 696 1000
a 696 1000 1
a 696 697 1000
a 697 1000 1
a 697 698 1000
a 698 1000 1
a 698 699 1000
a 699 1000 1
a 699 700 1000
a 700 1000 1
a 700 701 1000
a 701 1000 1
a 701 702 1000
a 702 1000 1
a 702 703 1000
a 703 1000 1
a 703 704 1000
a 704 1000 1
a 704 705 1000
a 705 1000 1
a 705 706 1000
a 706 1000 1
a 706 707 1000
a 707 1000 1
a 707 708 1000
a 708 1000 1
a 708 709 1000
a 709 1000 1
a 709 710 1000
a 710 1000 1
a 710 711 1000
a 711 1000 1
a 711 712 1000
a 712 1000 1
a 712 713 1000
a 713 1000 1
a 713 714 1000
a 714 1000 1
a 714 715 1000
a 715 1000 1
a 715 716 1000
a 716 1000 1
a 716 717 1000
a 717 1000 1
a 717 718 1000
a 718 1000 1
a 718 719 1000
a 719 1000 1
a 719 720 1000
a 720 1000 1
a 720 721 1000
a 721 1000 1
a 721 722 1000
a 722 1000 1
a 722 723 1000
a 723 1000 1
a 723 724 1000
a 724 1000 1
a 724 725 1000
a 725 1000 1
a 725 726 1000
a 726 1000 1
a 726 727 1000
a 727 1000 1
a 727 728 1000
a 728 1000 1
a 728 729 1000
a 729 1000 1
a 729 730 1000
a 730 1000 1
a 730 731 1000
a 731 1000 1
a 731 732 1000
a 732 1000 1
a 732 733 1000
a 733 1000 1
a 733 734 1000
a 734 1000 1
a 734 735 1000
a 735 1000 1
a 735 736 1000
a 736 1000 1
a 736 737 1000
a 737 1000 1
a 737 738 1000
a 738 1000 1
a 738 739 1000
a 739 1000 1
a 739 740 1000
a 740 1000 1
a 740 741 1000
a 741 1000 1
a 741 742 1000
a 742 1000 1
a 742 743 1000
a 743 1000 1
a 743 744 1000
a 744 1000 1
a 744 745 1000
a 745 1000 1
a 745 746 1000
a 746 1000 1
a 746 747 1000
a 747 1000 1
a 747 748 1000
a 748 1000 1
a 748 749 1000
a 749 1000 1
a 749 750 1000
a 750 1000 1
a 750 751 1000
a 751 1000 1
a 751 752 1000
a 752 1000 1
a 752 753 1000
a 753 1000 1
a 753 754 1000
a 754 1000 1
a 754 755 1000
a 755 1000 1
a 755 756 1000
a 756 1000 1
a 756 757 1000
a 757 1000 1
a 757 758 1000
a 758 1000 1
a 758 759 1000
a 759 1000 1
a 759 760 1000
a 760 1000 1
a 760 761 1000
a 761 1000 1
a 761 762 1000
a 762 1000 1
a 762 763 1000
a 763 1000 1
a 763 764 1000
a 764 1000 1
a 764 765 1000
a 765 1000 1
a 765 766 1000
a 766 1000 1
a 766 767 1000
a 767 1000 1
a 767 768 1000
a 768 1000 1
a 768 769 1000
a 769 1000 1
a 769 770 1000
a 770 1000 1
a 770 771 1000
a 771 1000 1
a 771 772 1000
a 772 1000 1
a 772 773 1000
a 773 1000 1
a 773 774 1000
a 774 1000 1
a 774 775 1000
a 775 1000 1
a 775 776 1000
a 776 1000 1
a 776 777 1000
a 777 1000 1
a 777 778 1000
a 778 1000 1
a 778 779 1000
a 779 1000 1
a 779 780 1000
a 780 1000 1
a 780 781 1000
a 781 1000 1
a 781 782 1000
a 782 1000 1
a 782 783 1000
a 783 1000 1
a 783 784 1000
a 784 1000 1
a 784 785 1000
a 785 1000 1
a 785 786 1000
a 786 1000 1
a 786 787 1000
a 787 1000 1
a 787 788 1000
a 788 1000 1
a 788 789 1000
a 789 1000 1
a 789 790 1000
a 790 1000 1
a 790 791 1000
a 791 1000 1
a 791 792 1000
a 792 1000 1
a 792 793 1000
a 793 1000 1
a 793 794 1000
a 794 1000 1
a 794 795 1000
a 795 1000 1
a 795 796 1000
a 796 1000 1
a 796 797 1000
a 797 1000 1
a 797 798 1000
a 798 1000 1
a 798 799 1000
a 799 1000 1
a 799 800 1000
a 800 1000 1
a 800 801 1000
a 801 1000 1
a 801 802 1000
a 802 1000 1
a 802 803 1000
a 803 1000 1
a 803 804 1000
a 804 1000 1
a 804 805 1000
a 805 1000 1
a 805 806 1000
a 806 1000 1
a 806 807 1000
a 807 1000 1
a 807 808 1000
a 808 1000 1
a 808 809 1000
a 809 1000 1
a 809 810 1000
a 810 1000 1
a 810 811 1000
a 811 1000 1
a 811 812 1000
a 812 1000 1
a 812 813 1000
a 813 1000 1
a 813 814 1000
a 814 1000 1
a 814 815 1000
a 815 1000 1
a 815 816 1000
a 816 1000 1
a 816 817 1000
a 817 1000 1
a 817 818 1000
a 818 1000 1
a 818 819 1000
a 819 1000 1
a 819 820 1000
a 820 1000 1
a 820 821 1000
a 821 1000 1
a 821 822 1000
a 822 1000 1
a 822 823 1000
a 823 1000 1
a 823 824 1000
a 824 1000 1
a 824 825 1000
a 825 1000 1
a 825 826 1000
a 826 1000 1
a 826 827 1000
a 827 1000 1
a 827 828 1000
a 828 1000 1
a 828 829 1000
a 829 1000 1
a 829 830 1000
a 830 1000 1
a 830 831 1000
a 831 1000 1
a 831 832 1000
a 832 1000 1
a 832 833 1000
a 833 1000 1
a 833 834 1000
a 834 1000 1
a 834 835 1000
a 835 1000 1
a 835 836 1000
a 836 1000 1
a 836 837 1000
a 837 1000 1
a 837 838 1000
a 838 1000 1
a 838 839 1000
a 839 1000 1
a 839 840 1000
a 840 1000 1
a 840 841 1000
a 841 1000 1
a 841 842 1000
a 842 1000 1
a 842 843 1000
a 843 1000 1
a 843 844 1000
a 844 1000 1
a 844 845 1000
a 845 1000 1
a 845 846 1000
a 846 1000 1
a 846 847 1000
a 847 1000 1
a 847 848 1000
a 848 1000 1
a 848 849 1000
a 849 1000 1
a 849 850 1000
a 850 1000 1
a 850 851 1000
a 851 1000 1
a 851 852 1000
a 852 1000 1
a 852 853 1000
a 853 1000 1
a 853 854 1000
a 854 1000 1
a 854 855 1000
a 855 1000 1
a 855 856 1000
a 856 1000 1
a 856 857 1000
a 857 1000 1
a 857 858 1000
a 858 1000 1
a 858 859 1000
a 859 1000 1
a 859 860 1000
a 860 1000 1
a 860 861 1000
a 861 1000 1
a 861 862 1000
a 862 1000 1
a 862 863 1000
a 863 1000 1
a 863 864 1000
a 864 1000 1
a 864 865 1000
a 865 1000 1
a 865 866 1000
a 866 1000 1
a 866 867 1000
a 867 1000 1
a 867 868 1000
a 868 1000 1
a 868 869 1000
a 869 1000 1
a 869 870 1000
a 870 1000 1
a 870 871 1000
a 871 1000 1
a 871 872 1000
a 872 1000 1
a 872 873 1000
a 873 1000 1
a 873 874 1000
a 874 1000 1
a 874 875 1000
a 875 1000 1
a 875 876 1000
a 876 1000 1
a 876 877 1000
a 877 1000 1
a 877 878 1000
a 878 1000 1
a 878 879 1000
a 879 1000 1
a 879 880 1000
a 880 1000 1
a 880 881 1000
a 881 1000 1
a 881 882 1000
a 882 1000 1
a 882 883 1000
a 883 1000 1
a 883 884 1000
a 884 1000 1
a 884 885 1000
a 885 1000 1
a 885 886 1000
a 886 1000 1
a 886 887 1000
a 887 1000 1
a 887 888 1000
a 888 1000 1
a 888 889 1000
a 889 1000 1
a 889 890 1000
a 890 1000 1
a 890 891 1000
a 891 1000 1
a 891 892 1000
a 892 1000 1
a 892 893 1000
a 893 1000 1
a 893 894 1000
a 894 1000 1
a 894 895 1000
a 895 1000 1
a 895 896 1000
a 896 1000 1
a 896 897 1000
a 897 1000 1
a 897 898 1000
a 898 1000 1
a 898 899 1000
a 899 1000 1
a 899 900 1000
a 900 1000 1
a 900 901 1000
a 901 1000 1
a 901 902 1000
a 902 1000 1
a 902 903 1000
a 903 1000 1
a 903 904 1000
a 904 1000 1
a 904 905 1000
a 905 1000 1
a 905 906 1000
a 906 1000 1
a 906 907 1000
a 907 1000 1
a 907 908 1000
a 908 1000 1
a 908 909 1000
a 909 1000 1
a 909 910 1000
a 910 1000 1
a 910 911 1000
a 911 1000 1
a 911 912 1000
a 912 1000 1
a 912 913 1000
a 913 1000 1
a 913 914 1000
a 914 1000 1
a 914 915 1000
a 915 1000 1
a 915 916 1000
a 916 1000 1
a 916 917 1000
a 917 1000 1
a 917 918 1000
a 918 1000 1
a 918 919 1000
a 919 1000 1
a 919 920 1000
a 920 1000 1
a 920 921 1000
a 921 1000 1
a 921 922 1000
a 922 1000 1
a 922 923 1000
a 923 1000 1
a 923 924 1000
a 924 1000 1
a 924 925 1000
a 925 1000 1
a 925 926 1000
a 926 1000 1
a 926 927 1000
a 927 1000 1
a 927 928 1000
a 928 1000 1
a 928 929 1000
a 929 1000 1
a 929 930 1000
a 930 1000 1
a 930 931 1000
a 931 1000 1
a 931 932 1000
a 932 1000 1
a 932 933 1000
a 933 1000 1
a 933 934 1000
a 934 1000 1
a 934 935 1000
a 935 1000 1
a 935 936 1000
a 936 1000 1
a 936 937 1000
a 937 1000 1
a 937 938 1000
a 938 1000 1
a 938 939 1000
a 939 1000 1
a 939 940 1000
a 940 1000 1
a 940 941 1000
a 941 1000 1
a 941 942 1000
a 942 1000 1
a 942 943 1000
a 943 1000 1
a 943 944 1000
a 944 1000 1
a 944 945 1000
a 945 1000 1
a 945 946 1000
a 946 1000 1
a 946 947 1000
a 947 1000 1
a 947 948 1000
a 948 1000 1
a 948 949 1000
a 949 1000 1
a 949 950 1000
a 950 1000 1
a 950 951 1000
a 951 1000 1
a 951 952 1000
a 952 1000 1
a 952 953 1000
a 953 1000 1
a 953 954 1000
a 954 1000 1
a 954 955 1000
a 955 1000 1
a 955 956 1000
a 956 1000 1
a 956 957 1000
a 957 1000 1
a 957 958 1000
a 958 1000 1
a 958 959 1000
a 959 1000 1
a 959 960 1000
a 960 1000 1
a 960 961 1000
a 961 1000 1
a 961 962 1000
a 962 1000 1
a 962 963 1000
a 963 1000 1
a 963 964 1000
a 964 1000 1
a 964 965 1000
a 965 1000 1
a 965 966 1000
a 966 1000 1
a 966 967 1000
a 967 1000 1
a 967 968 1000
a 968 1000 1
a 968 969 1000
a 969 1000 1
a 969 970 1000
a 970 1000 1
a 970 971 1000
a 971 1000 1
a 971 972 1000
a 972 1000 1
a 972 973 1000
a 973 1000 1
a 973 974 1000
a 974 1000 1
a 974 975 1000
a 975 1000 1
a 975 976 1000
a 976 1000 1
a 976 977 1000
a 977 1000 1
a 977 978 1000
a 978 1000 1
a 978 979 1000
a 979 1000 1
a 979 980 1000
a 980 1000 1
a 980 981 1000
a 981 1000 1
a 981 982 1000
a 982 1000 1
a 982 983 1000
a 983 1000 1
a 983 984 1000
a 984 1000 1
a 984 985 1000
a 985 1000 1
a 985 986 1000
a 986 1000 1
a 986 987 1000
a 987 1000 1
a 987 988 1000
a 988 1000 1
a 988 989 1000
a 989 1000 1
a 989 990 1000
a 990 1000 1
a 990 991 1000
a 991 1000 1
a 991 992 1000
a 992 1000 1
a 992 993 1000
a 993 1000 1
a 993 994 1000
a 994 1000 1
a 994 995 1000
a 995 1000 1
a 995 996 1000
a 996 1000 1
a 996 997 1000
a 997 1000 1
a 997 998 1000
a 998 1000 1
a 998 999 1000
a 999 1000 1000
